\ LP format - for model browsing. Use MPS format to capture full model detail.
Maximize
  10 x_1 + 5 x_2 + 4 x_3 + 2 x_4 + 3 x_5 + 5 x_6 + 9 x_7 + 10 x_8 + x_9
   + 3 x_10
Subject To
 C_1: 4 x_1 + x_2 + 7 x_5 + 2 x_6 + 7 x_7 + 10 x_9 + 6 x_10 <= 18
 C_2: 8 x_2 + 6 x_3 + 7 x_6 + 10 x_10 <= 15
 C_3: 7 x_3 + 2 x_4 + 2 x_5 <= 5
 C_4: x_4 + 4 x_7 <= 2
 C_5: 9 x_2 + 7 x_3 + 7 x_4 + x_5 + 3 x_6 + 4 x_8 + 3 x_9 <= 17
 C_6: 2 x_1 + 8 x_2 + 2 x_3 + 8 x_6 + 4 x_7 + x_8 + 5 x_9 + 10 x_10 <= 20
 C_7: 6 x_2 + 8 x_4 + 8 x_9 + 7 x_10 <= 14
 C_8: x_1 + 4 x_3 + x_4 + 10 x_5 + 6 x_6 + 5 x_8 <= 13
 C_9: 10 x_2 + 10 x_3 + 10 x_4 + x_7 + 7 x_9 <= 19
 C_10: 9 x_1 + 2 x_2 + 5 x_3 + 4 x_5 + 5 x_8 + 6 x_10 <= 15
 CC(0): x_1 + x_2 + x_5 + x_6 + x_7 + x_9 + x_10 <= 4
 CC(1): x_2 + x_3 + x_6 + x_10 <= 2
 CC(2): 7 x_3 + x_4 + x_5 <= 2
 CC(3): x_2 + x_3 + x_4 + x_5 + x_6 + x_8 + x_9 <= 4
 CC(4): x_1 + x_2 + x_3 + x_6 + x_7 + x_8 + x_9 + x_10 <= 5
 CC(5): x_2 + x_4 + x_9 + x_10 <= 2
 CC(6): x_1 + x_3 + x_4 + 2 x_5 + x_6 + x_8 <= 4
 CC(7): x_2 + x_3 + x_4 + x_7 + x_9 <= 3
 CC(8): x_1 + x_2 + x_3 + x_5 + x_8 + x_10 <= 3
 CC(9): x_1 + x_2 + x_5 + x_7 + 2 x_9 + x_10 <= 4
 CC(10): 7 x_3 + x_5 <= 1
 CC(11): x_2 + x_3 + x_4 + x_5 + x_8 <= 3
 CC(12): x_2 + x_3 + x_6 + x_7 + x_8 + x_10 <= 4
 CC(13): x_1 + x_3 + 3 x_5 + x_6 + x_8 <= 4
 CC(14): x_2 + x_3 + x_4 + x_7 <= 2
 CC(15): x_1 + 2 x_5 + x_6 + x_8 <= 3
 CC(16): x_1 + x_5 + x_6 + x_7 + 2 x_9 + x_10 <= 4
 CC(18): x_2 + x_3 + x_4 + x_6 <= 3
 CC(19): x_1 + x_2 + x_6 + x_7 + x_9 + 2 x_10 <= 4
 CC(20): x_3 + x_4 + 3 x_5 + x_6 + x_8 <= 4
 CC(21): x_2 + x_3 + x_4 + x_9 <= 2
 CC(22): x_1 + x_8 + x_10 <= 2
 CC(23): x_2 + x_5 + x_6 + x_7 + x_9 + x_10 <= 4
 CC(24): 7 x_3 + x_4 <= 1
 CC(25): x_2 + x_3 + x_4 + x_6 + x_9 <= 3
 CC(26): x_1 + x_2 + x_6 + x_8 + x_9 + x_10 <= 4
 CC(27): x_1 + x_3 + x_8 + x_10 <= 2
 CC(29): x_4 + 2 x_5 + x_6 + x_8 <= 3
 CC(32): x_1 + x_2 + x_6 + x_8 + x_10 <= 4
 CC(33): x_1 + x_3 + 2 x_5 + x_8 <= 3
 CC(34): x_3 + x_4 + 2 x_5 + x_8 <= 3
 CC(35): x_1 + x_3 + x_5 <= 2
 CC(36): x_3 + x_4 + x_5 <= 2
 CC(38): x_2 + x_3 + x_4 + x_8 + x_9 <= 3
 CC(39): x_2 + x_6 + x_7 + x_8 + x_9 + x_10 <= 4
 CC(40): x_1 + x_3 + 2 x_5 + x_6 <= 3
 CC(41): x_3 + x_4 + 2 x_5 + x_6 <= 3
 CC(42): x_1 + x_5 + x_8 <= 2
 CC(43): x_4 + x_5 + x_8 <= 2
 CC(44): x_1 + x_5 + x_6 <= 2
 CC(45): x_4 + x_5 + x_6 <= 2
 CC(46): x_2 + x_3 + x_4 + x_6 + x_8 <= 3
 CC(47): x_1 + x_2 + x_6 + x_7 + x_8 + x_10 <= 4
 CC(48): x_1 + x_2 + x_10 <= 2
 CC(50): x_1 + x_2 + x_3 + x_6 + x_7 + x_9 + 2 x_10 <= 5
 CC(51): 2 x_2 + 2 x_3 + 2 x_4 + x_9 <= 3
 CC(52): x_1 + x_2 + x_5 + x_9 <= 3
 CC(53): x_1 + x_5 + x_6 + x_9 <= 3
 CC(54): x_3 + x_5 + x_8 <= 2
 CC(55): x_3 + x_5 + x_6 <= 2
 CC(57): x_2 + x_3 + x_6 + x_7 + x_8 + x_9 + 2 x_10 <= 5
 CC(58): x_1 + x_2 + x_6 + x_7 + x_8 + x_9 + 2 x_10 <= 5
 CC(59): x_2 + x_7 + x_9 + x_10 <= 3
 CC(60): x_6 + x_7 + x_9 + x_10 <= 3
 CC(61): x_2 + x_3 + x_4 <= 2
 CC(63): x_3 + 2 x_5 + x_6 + x_8 <= 3
 CC(65): x_1 + x_7 + x_9 + x_10 <= 3
 CC(68): x_1 + x_2 + x_9 + x_10 <= 3
 CC(69): x_1 + x_6 + x_9 + x_10 <= 3
 CC(70): x_2 + x_3 + x_4 + x_5 + x_6 + x_9 <= 4
 CC(72): x_1 + x_2 + x_3 + x_6 + x_7 + x_8 + x_10 <= 5
 CC(73): x_1 + x_5 + x_7 + x_9 <= 3
 CC(74): x_1 + 2 x_2 + 2 x_6 + x_7 + x_9 + 2 x_10 <= 5
 CC(76): x_5 + x_6 + x_8 <= 2
 CC(79): x_1 + x_2 + x_6 + x_7 + x_10 <= 4
 CC(80): x_1 + x_2 + x_6 + x_9 + x_10 <= 4
 CC(81): x_1 + x_2 + x_3 + x_6 + x_7 + x_10 <= 4
 CC(82): x_1 + x_2 + x_6 + x_7 + x_9 + x_10 <= 4
 CC(83): x_2 + x_3 + x_4 + x_5 + x_6 + x_8 <= 4
 CC(84): x_2 + x_6 + x_7 + x_9 + x_10 <= 4
 CC(98): x_2 + x_6 + x_7 + x_8 + x_10 <= 4
 CC(891): x_2 + x_3 + x_4 + x_5 + x_8 + x_9 <= 4
 CC(1124): x_1 + x_2 + x_3 + x_6 + x_8 + x_10 <= 4
 CC(1838): x_2 + x_5 + x_7 + x_9 <= 3
 CC(4583): 2 x_2 + x_3 + x_4 + x_6 + x_8 + x_9 <= 4
 CC(5383): x_5 + x_6 + x_7 + x_9 <= 3
 CC(6371): 2 x_1 + x_2 + x_3 + x_8 + x_10 <= 3
 CC(6373): x_2 + x_4 + x_8 + x_9 <= 3
 CC(6374): x_1 + x_3 + x_8 <= 2
 CC(6376): x_1 + x_4 + x_5 + x_6 <= 3
 CC(6378): x_1 + x_3 + x_5 + x_8 <= 3
 CC(6379): x_2 + x_3 + x_6 + x_8 <= 3
 CC(6380): x_3 <= 0
 CC(6381): x_1 + x_2 + x_6 + x_8 + x_9 + 2 x_10 <= 5
 CC(6382): x_3 + 3 x_5 + x_6 + x_8 <= 3
 CC(6383): x_3 + 2 x_5 + x_6 <= 2
 CC(6386): x_3 + x_5 <= 1
 CC(6389): x_2 + x_4 + x_6 + x_8 <= 3
 CC(6390): x_1 + x_2 + x_3 <= 2
 CC(6394): x_2 + x_4 + x_6 + x_9 <= 3
 CC(6398): x_5 + x_6 <= 1
 CC(6402): x_1 + x_2 + x_3 + x_6 + x_8 + x_9 + x_10 <= 5
 CC(6408): x_2 + x_3 + x_6 + x_9 <= 3
 CC(6409): x_3 + 2 x_5 + x_8 <= 2
 CC(6414): x_1 + x_4 + x_5 + x_8 <= 3
 CC(6415): x_5 + x_8 <= 1
 CC(6417): x_3 + x_4 + 2 x_5 + x_6 + x_8 <= 3
 CC(6419): 2 x_5 + x_6 + x_8 <= 2
 CC(6427): x_4 + x_5 + x_6 + x_8 <= 3
 CC(6437): x_1 + x_3 + 2 x_5 + x_6 + x_8 <= 3
 CC(6443): 2 x_2 + 2 x_6 + x_7 + x_8 + x_9 + 2 x_10 <= 5
 CC(6467): x_2 + x_6 + x_8 + x_9 + x_10 <= 4
 CC(6471): x_1 + x_3 + x_5 + x_6 <= 3
Bounds
Binaries
 x_1 x_2 x_3 x_4 x_5 x_6 x_7 x_8 x_9 x_10
End
